cost: 561.65
Route 1:           0    7   33   28   44   32   23   40   38   34    0
Route 2:           0   14   41    6   12   22   18   21    3   11    0
Route 3:           0   25   27   42   36   37   24    4    9    2   50   43   31   29   39    0
Route 4:           0    8   47   46   20   49   48   15   26   19   17   13    1   30   10    5   16   45   35    0
